
letting CORE be new type enum {c1, c2}
letting REGISTER be new type enum {r1, r2, r3}
letting VARIABLE be new type enum {x, y, z}
letting VALUE be new type enum {Initial, v0, v1}

letting maxNbOperationsPerCore be 3

letting initial_step_of_registers be Initial
letting initial_step_of_variables be v0
letting final_step_of_variables be function ()
letting final_step_of_registers be function
    ( (c1,r1) --> v0
    , (c2,r3) --> v0
    )



letting MCM be TSO

letting include_programs be {
    function(c1 --> sequence( variant {store = record {variable = x, value = v1}}
                            , variant {load = record {register = r1, variable = y}}
                            )
            ,c2 --> sequence( variant {store = record {variable = y, value = v1}}
                            , variant {load = record {register = r2, variable = z}}
                            , variant {load = record {register = r3, variable = x}}
                            ))
}

letting exclude_programs be {}
